# Solution for model SP4_Layered_VRP
# Objective value = 6.9199998535429952e+00
x[0,1,0] 0
x[0,1,1] 0
x[0,1,2] 0
x[0,2,0] 0
x[0,2,1] 0
x[0,2,2] 0
x[0,3,0] 0
x[0,3,1] 0
x[0,3,2] 0
x[0,4,0] 0
x[0,4,1] 0
x[0,4,2] 0
x[0,5,0] 0
x[0,5,1] 0
x[0,5,2] 0
x[0,6,0] 0
x[0,6,1] 0
x[0,6,2] 0
x[0,7,0] 0
x[0,7,1] 0
x[0,7,2] 0
x[0,8,0] 0
x[0,8,1] 0
x[0,8,2] 0
x[0,9,0] 0
x[0,9,1] 0
x[0,9,2] 0
x[0,10,0] 0
x[0,10,1] 0
x[0,10,2] 0
x[0,11,0] 0
x[0,11,1] 0
x[0,11,2] 0
x[0,12,0] 0
x[0,12,1] 0
x[0,12,2] 0
x[0,13,0] 0
x[0,13,1] 0
x[0,13,2] 0
x[0,14,0] 0
x[0,14,1] 0
x[0,14,2] 0
x[0,15,0] 0
x[0,15,1] 0
x[0,15,2] 0
x[0,16,0] 0
x[0,16,1] 0
x[0,16,2] 0
x[0,17,0] 0
x[0,17,1] 0
x[0,17,2] 0
x[0,18,0] 0
x[0,18,1] 0
x[0,18,2] 0
x[0,19,0] 0
x[0,19,1] 0
x[0,19,2] 0
x[0,20,0] 1
x[0,20,1] 1
x[0,20,2] 0
x[0,21,0] 0
x[0,21,1] 0
x[0,21,2] 0
x[0,22,0] 0
x[0,22,1] 0
x[0,22,2] 0
x[0,23,0] 0
x[0,23,1] 0
x[0,23,2] 0
x[0,24,0] 0
x[0,24,1] 0
x[0,24,2] 0
x[0,25,0] 0
x[0,25,1] 0
x[0,25,2] 0
x[0,26,0] 0
x[0,26,1] 0
x[0,26,2] 0
x[0,27,0] 0
x[0,27,1] 0
x[0,27,2] 0
x[0,28,0] 0
x[0,28,1] 0
x[0,28,2] 0
x[0,29,0] 0
x[0,29,1] 0
x[0,29,2] 0
x[0,30,0] 0
x[0,30,1] 0
x[0,30,2] 0
x[0,31,0] 0
x[0,31,1] 0
x[0,31,2] 0
x[1,0,0] 0
x[1,0,1] 0
x[1,0,2] 0
x[1,2,0] 0
x[1,2,1] 0
x[1,2,2] 0
x[1,3,0] 0
x[1,3,1] 0
x[1,3,2] 0
x[1,4,0] 0
x[1,4,1] 0
x[1,4,2] 0
x[1,5,0] 0
x[1,5,1] 1
x[1,5,2] 0
x[1,6,0] 0
x[1,6,1] 0
x[1,6,2] 0
x[1,7,0] 0
x[1,7,1] 0
x[1,7,2] 0
x[1,8,0] 0
x[1,8,1] 0
x[1,8,2] 0
x[1,9,0] 0
x[1,9,1] 0
x[1,9,2] 0
x[1,10,0] 0
x[1,10,1] 0
x[1,10,2] 0
x[1,11,0] 0
x[1,11,1] 0
x[1,11,2] 0
x[1,12,0] 0
x[1,12,1] 0
x[1,12,2] 0
x[1,13,0] 0
x[1,13,1] 0
x[1,13,2] 0
x[1,14,0] 0
x[1,14,1] 0
x[1,14,2] 0
x[1,15,0] 0
x[1,15,1] 0
x[1,15,2] 0
x[1,16,0] 0
x[1,16,1] 0
x[1,16,2] 0
x[1,17,0] 0
x[1,17,1] 0
x[1,17,2] 0
x[1,18,0] 0
x[1,18,1] 0
x[1,18,2] 0
x[1,19,0] 0
x[1,19,1] 0
x[1,19,2] 0
x[1,20,0] 0
x[1,20,1] 0
x[1,20,2] 0
x[1,21,0] 0
x[1,21,1] 0
x[1,21,2] 0
x[1,22,0] 0
x[1,22,1] 0
x[1,22,2] 0
x[1,23,0] 0
x[1,23,1] 0
x[1,23,2] 0
x[1,24,0] 0
x[1,24,1] 0
x[1,24,2] 0
x[1,25,0] 0
x[1,25,1] 0
x[1,25,2] 0
x[1,26,0] 0
x[1,26,1] 0
x[1,26,2] 0
x[1,27,0] 0
x[1,27,1] 0
x[1,27,2] 0
x[1,28,0] 0
x[1,28,1] 0
x[1,28,2] 0
x[1,29,0] 0
x[1,29,1] 0
x[1,29,2] 0
x[1,30,0] 0
x[1,30,1] 0
x[1,30,2] 0
x[1,31,0] 0
x[1,31,1] 0
x[1,31,2] 0
x[2,0,0] 0
x[2,0,1] 0
x[2,0,2] 0
x[2,1,0] 0
x[2,1,1] 0
x[2,1,2] 1
x[2,3,0] 0
x[2,3,1] 0
x[2,3,2] 0
x[2,4,0] 0
x[2,4,1] 0
x[2,4,2] 0
x[2,5,0] 0
x[2,5,1] 0
x[2,5,2] 0
x[2,6,0] 0
x[2,6,1] 0
x[2,6,2] 0
x[2,7,0] 0
x[2,7,1] 0
x[2,7,2] 0
x[2,8,0] 0
x[2,8,1] 0
x[2,8,2] 0
x[2,9,0] 0
x[2,9,1] 0
x[2,9,2] 0
x[2,10,0] 1
x[2,10,1] 0
x[2,10,2] 0
x[2,11,0] 0
x[2,11,1] 0
x[2,11,2] 0
x[2,12,0] 1
x[2,12,1] 0
x[2,12,2] 0
x[2,13,0] 0
x[2,13,1] 0
x[2,13,2] 0
x[2,14,0] 0
x[2,14,1] 0
x[2,14,2] 0
x[2,15,0] 1
x[2,15,1] 0
x[2,15,2] 0
x[2,16,0] 0
x[2,16,1] 0
x[2,16,2] 0
x[2,17,0] 0
x[2,17,1] 0
x[2,17,2] 0
x[2,18,0] 0
x[2,18,1] 0
x[2,18,2] 0
x[2,19,0] 0
x[2,19,1] 0
x[2,19,2] 0
x[2,20,0] 0
x[2,20,1] 0
x[2,20,2] 0
x[2,21,0] 0
x[2,21,1] 0
x[2,21,2] 0
x[2,22,0] 0
x[2,22,1] 0
x[2,22,2] 0
x[2,23,0] 0
x[2,23,1] 0
x[2,23,2] 0
x[2,24,0] 0
x[2,24,1] 0
x[2,24,2] 0
x[2,25,0] 0
x[2,25,1] 0
x[2,25,2] 0
x[2,26,0] 0
x[2,26,1] 0
x[2,26,2] 0
x[2,27,0] 0
x[2,27,1] 0
x[2,27,2] 0
x[2,28,0] 0
x[2,28,1] 0
x[2,28,2] 0
x[2,29,0] 0
x[2,29,1] 0
x[2,29,2] 0
x[2,30,0] 0
x[2,30,1] 0
x[2,30,2] 0
x[2,31,0] 0
x[2,31,1] 0
x[2,31,2] 0
x[3,0,0] 0
x[3,0,1] 0
x[3,0,2] 0
x[3,1,0] 1
x[3,1,1] 0
x[3,1,2] 0
x[3,2,0] 0
x[3,2,1] 0
x[3,2,2] 0
x[3,4,0] 0
x[3,4,1] 0
x[3,4,2] 0
x[3,5,0] 0
x[3,5,1] 0
x[3,5,2] 0
x[3,6,0] 0
x[3,6,1] 0
x[3,6,2] 0
x[3,7,0] 0
x[3,7,1] 0
x[3,7,2] 0
x[3,8,0] 0
x[3,8,1] 0
x[3,8,2] 0
x[3,9,0] 0
x[3,9,1] 0
x[3,9,2] 0
x[3,10,0] 0
x[3,10,1] 0
x[3,10,2] 0
x[3,11,0] 0
x[3,11,1] 0
x[3,11,2] 0
x[3,12,0] 0
x[3,12,1] 0
x[3,12,2] 0
x[3,13,0] 0
x[3,13,1] 0
x[3,13,2] 0
x[3,14,0] 0
x[3,14,1] 0
x[3,14,2] 0
x[3,15,0] 0
x[3,15,1] 0
x[3,15,2] 0
x[3,16,0] 0
x[3,16,1] 0
x[3,16,2] 0
x[3,17,0] 0
x[3,17,1] 0
x[3,17,2] 0
x[3,18,0] 0
x[3,18,1] 0
x[3,18,2] 0
x[3,19,0] 0
x[3,19,1] 0
x[3,19,2] 0
x[3,20,0] 0
x[3,20,1] 0
x[3,20,2] 0
x[3,21,0] 0
x[3,21,1] 0
x[3,21,2] 0
x[3,22,0] 0
x[3,22,1] 0
x[3,22,2] 0
x[3,23,0] 0
x[3,23,1] 0
x[3,23,2] 0
x[3,24,0] 0
x[3,24,1] 0
x[3,24,2] 0
x[3,25,0] 0
x[3,25,1] 0
x[3,25,2] 0
x[3,26,0] 0
x[3,26,1] 0
x[3,26,2] 0
x[3,27,0] 0
x[3,27,1] 0
x[3,27,2] 0
x[3,28,0] 0
x[3,28,1] 0
x[3,28,2] 0
x[3,29,0] 0
x[3,29,1] 0
x[3,29,2] 0
x[3,30,0] 0
x[3,30,1] 0
x[3,30,2] 0
x[3,31,0] 0
x[3,31,1] 0
x[3,31,2] 0
x[4,0,0] 0
x[4,0,1] 0
x[4,0,2] 0
x[4,1,0] 0
x[4,1,1] 0
x[4,1,2] 0
x[4,2,0] 0
x[4,2,1] 1
x[4,2,2] 0
x[4,3,0] 0
x[4,3,1] 0
x[4,3,2] 0
x[4,5,0] 0
x[4,5,1] 0
x[4,5,2] 0
x[4,6,0] 0
x[4,6,1] 0
x[4,6,2] 0
x[4,7,0] 0
x[4,7,1] 0
x[4,7,2] 0
x[4,8,0] 0
x[4,8,1] 0
x[4,8,2] 0
x[4,9,0] 0
x[4,9,1] 0
x[4,9,2] 0
x[4,10,0] 0
x[4,10,1] 0
x[4,10,2] 0
x[4,11,0] 0
x[4,11,1] 0
x[4,11,2] 0
x[4,12,0] 0
x[4,12,1] 0
x[4,12,2] 0
x[4,13,0] 0
x[4,13,1] 0
x[4,13,2] 0
x[4,14,0] 0
x[4,14,1] 0
x[4,14,2] 0
x[4,15,0] 0
x[4,15,1] 0
x[4,15,2] 0
x[4,16,0] 0
x[4,16,1] 0
x[4,16,2] 0
x[4,17,0] 0
x[4,17,1] 0
x[4,17,2] 0
x[4,18,0] 0
x[4,18,1] 0
x[4,18,2] 0
x[4,19,0] 0
x[4,19,1] 0
x[4,19,2] 0
x[4,20,0] 0
x[4,20,1] 0
x[4,20,2] 0
x[4,21,0] 0
x[4,21,1] 0
x[4,21,2] 0
x[4,22,0] 0
x[4,22,1] 0
x[4,22,2] 0
x[4,23,0] 0
x[4,23,1] 0
x[4,23,2] 0
x[4,24,0] 0
x[4,24,1] 0
x[4,24,2] 0
x[4,25,0] 0
x[4,25,1] 0
x[4,25,2] 0
x[4,26,0] 0
x[4,26,1] 0
x[4,26,2] 0
x[4,27,0] 0
x[4,27,1] 0
x[4,27,2] 0
x[4,28,0] 0
x[4,28,1] 0
x[4,28,2] 0
x[4,29,0] 0
x[4,29,1] 0
x[4,29,2] 0
x[4,30,0] 0
x[4,30,1] 0
x[4,30,2] 0
x[4,31,0] 0
x[4,31,1] 0
x[4,31,2] 0
x[5,0,0] 0
x[5,0,1] 0
x[5,0,2] 0
x[5,1,0] 0
x[5,1,1] 0
x[5,1,2] 0
x[5,2,0] 0
x[5,2,1] 0
x[5,2,2] 0
x[5,3,0] 0
x[5,3,1] 0
x[5,3,2] 0
x[5,4,0] 0
x[5,4,1] 0
x[5,4,2] 0
x[5,6,0] 0
x[5,6,1] 0
x[5,6,2] 0
x[5,7,0] 0
x[5,7,1] 0
x[5,7,2] 0
x[5,8,0] 0
x[5,8,1] 0
x[5,8,2] 0
x[5,9,0] 0
x[5,9,1] 0
x[5,9,2] 0
x[5,10,0] 0
x[5,10,1] 0
x[5,10,2] 0
x[5,11,0] 0
x[5,11,1] 0
x[5,11,2] 0
x[5,12,0] 0
x[5,12,1] 0
x[5,12,2] 0
x[5,13,0] 0
x[5,13,1] 1
x[5,13,2] 0
x[5,14,0] 0
x[5,14,1] 0
x[5,14,2] 0
x[5,15,0] 0
x[5,15,1] 0
x[5,15,2] 0
x[5,16,0] 0
x[5,16,1] 0
x[5,16,2] 0
x[5,17,0] 0
x[5,17,1] 0
x[5,17,2] 0
x[5,18,0] 0
x[5,18,1] 0
x[5,18,2] 0
x[5,19,0] 0
x[5,19,1] 0
x[5,19,2] 0
x[5,20,0] 0
x[5,20,1] 0
x[5,20,2] 0
x[5,21,0] 0
x[5,21,1] 0
x[5,21,2] 0
x[5,22,0] 0
x[5,22,1] 0
x[5,22,2] 0
x[5,23,0] 0
x[5,23,1] 0
x[5,23,2] 0
x[5,24,0] 0
x[5,24,1] 0
x[5,24,2] 0
x[5,25,0] 0
x[5,25,1] 0
x[5,25,2] 0
x[5,26,0] 0
x[5,26,1] 0
x[5,26,2] 0
x[5,27,0] 0
x[5,27,1] 0
x[5,27,2] 0
x[5,28,0] 0
x[5,28,1] 0
x[5,28,2] 0
x[5,29,0] 0
x[5,29,1] 0
x[5,29,2] 0
x[5,30,0] 0
x[5,30,1] 0
x[5,30,2] 0
x[5,31,0] 0
x[5,31,1] 0
x[5,31,2] 0
x[6,0,0] 0
x[6,0,1] 0
x[6,0,2] 0
x[6,1,0] 0
x[6,1,1] 0
x[6,1,2] 0
x[6,2,0] 0
x[6,2,1] 0
x[6,2,2] 0
x[6,3,0] 0
x[6,3,1] 0
x[6,3,2] 0
x[6,4,0] 0
x[6,4,1] 0
x[6,4,2] 0
x[6,5,0] 0
x[6,5,1] 0
x[6,5,2] 0
x[6,7,0] 0
x[6,7,1] 0
x[6,7,2] 0
x[6,8,0] 0
x[6,8,1] 0
x[6,8,2] 0
x[6,9,0] 1
x[6,9,1] 0
x[6,9,2] 0
x[6,10,0] 0
x[6,10,1] 0
x[6,10,2] 0
x[6,11,0] 0
x[6,11,1] 0
x[6,11,2] 0
x[6,12,0] 0
x[6,12,1] 0
x[6,12,2] 0
x[6,13,0] 0
x[6,13,1] 0
x[6,13,2] 0
x[6,14,0] 0
x[6,14,1] 0
x[6,14,2] 0
x[6,15,0] 0
x[6,15,1] 0
x[6,15,2] 0
x[6,16,0] 0
x[6,16,1] 0
x[6,16,2] 0
x[6,17,0] 0
x[6,17,1] 0
x[6,17,2] 0
x[6,18,0] 0
x[6,18,1] 0
x[6,18,2] 0
x[6,19,0] 0
x[6,19,1] 0
x[6,19,2] 0
x[6,20,0] 0
x[6,20,1] 0
x[6,20,2] 0
x[6,21,0] 0
x[6,21,1] 0
x[6,21,2] 0
x[6,22,0] 0
x[6,22,1] 0
x[6,22,2] 0
x[6,23,0] 0
x[6,23,1] 0
x[6,23,2] 0
x[6,24,0] 0
x[6,24,1] 0
x[6,24,2] 0
x[6,25,0] 0
x[6,25,1] 0
x[6,25,2] 0
x[6,26,0] 0
x[6,26,1] 0
x[6,26,2] 0
x[6,27,0] 0
x[6,27,1] 0
x[6,27,2] 0
x[6,28,0] 0
x[6,28,1] 0
x[6,28,2] 0
x[6,29,0] 0
x[6,29,1] 0
x[6,29,2] 0
x[6,30,0] 0
x[6,30,1] 0
x[6,30,2] 0
x[6,31,0] 0
x[6,31,1] 0
x[6,31,2] 0
x[7,0,0] 0
x[7,0,1] 0
x[7,0,2] 0
x[7,1,0] 0
x[7,1,1] 0
x[7,1,2] 0
x[7,2,0] 0
x[7,2,1] 0
x[7,2,2] 0
x[7,3,0] 0
x[7,3,1] 0
x[7,3,2] 0
x[7,4,0] 0
x[7,4,1] 0
x[7,4,2] 0
x[7,5,0] 0
x[7,5,1] 0
x[7,5,2] 0
x[7,6,0] 0
x[7,6,1] 0
x[7,6,2] 0
x[7,8,0] 1
x[7,8,1] 0
x[7,8,2] 0
x[7,9,0] 0
x[7,9,1] 0
x[7,9,2] 0
x[7,10,0] 0
x[7,10,1] 0
x[7,10,2] 0
x[7,11,0] 0
x[7,11,1] 0
x[7,11,2] 0
x[7,12,0] 0
x[7,12,1] 0
x[7,12,2] 0
x[7,13,0] 0
x[7,13,1] 0
x[7,13,2] 0
x[7,14,0] 0
x[7,14,1] 0
x[7,14,2] 0
x[7,15,0] 0
x[7,15,1] 0
x[7,15,2] 0
x[7,16,0] 0
x[7,16,1] 0
x[7,16,2] 0
x[7,17,0] 0
x[7,17,1] 0
x[7,17,2] 0
x[7,18,0] 0
x[7,18,1] 0
x[7,18,2] 0
x[7,19,0] 0
x[7,19,1] 0
x[7,19,2] 0
x[7,20,0] 0
x[7,20,1] 0
x[7,20,2] 0
x[7,21,0] 0
x[7,21,1] 0
x[7,21,2] 0
x[7,22,0] 0
x[7,22,1] 0
x[7,22,2] 0
x[7,23,0] 0
x[7,23,1] 0
x[7,23,2] 0
x[7,24,0] 0
x[7,24,1] 0
x[7,24,2] 0
x[7,25,0] 0
x[7,25,1] 0
x[7,25,2] 0
x[7,26,0] 0
x[7,26,1] 0
x[7,26,2] 0
x[7,27,0] 0
x[7,27,1] 0
x[7,27,2] 0
x[7,28,0] 0
x[7,28,1] 0
x[7,28,2] 0
x[7,29,0] 0
x[7,29,1] 0
x[7,29,2] 0
x[7,30,0] 0
x[7,30,1] 0
x[7,30,2] 0
x[7,31,0] 0
x[7,31,1] 0
x[7,31,2] 0
x[8,0,0] 0
x[8,0,1] 0
x[8,0,2] 0
x[8,1,0] 0
x[8,1,1] 0
x[8,1,2] 0
x[8,2,0] 0
x[8,2,1] 0
x[8,2,2] 0
x[8,3,0] 0
x[8,3,1] 0
x[8,3,2] 0
x[8,4,0] 0
x[8,4,1] 0
x[8,4,2] 0
x[8,5,0] 0
x[8,5,1] 0
x[8,5,2] 0
x[8,6,0] 1
x[8,6,1] 0
x[8,6,2] 0
x[8,7,0] 0
x[8,7,1] 0
x[8,7,2] 0
x[8,9,0] 0
x[8,9,1] 0
x[8,9,2] 0
x[8,10,0] 0
x[8,10,1] 0
x[8,10,2] 0
x[8,11,0] 0
x[8,11,1] 0
x[8,11,2] 0
x[8,12,0] 0
x[8,12,1] 0
x[8,12,2] 0
x[8,13,0] 0
x[8,13,1] 0
x[8,13,2] 0
x[8,14,0] 0
x[8,14,1] 0
x[8,14,2] 0
x[8,15,0] 0
x[8,15,1] 0
x[8,15,2] 0
x[8,16,0] 0
x[8,16,1] 0
x[8,16,2] 0
x[8,17,0] 0
x[8,17,1] 0
x[8,17,2] 0
x[8,18,0] 0
x[8,18,1] 0
x[8,18,2] 0
x[8,19,0] 0
x[8,19,1] 0
x[8,19,2] 0
x[8,20,0] 0
x[8,20,1] 0
x[8,20,2] 0
x[8,21,0] 0
x[8,21,1] 0
x[8,21,2] 0
x[8,22,0] 0
x[8,22,1] 0
x[8,22,2] 0
x[8,23,0] 0
x[8,23,1] 0
x[8,23,2] 0
x[8,24,0] 0
x[8,24,1] 0
x[8,24,2] 0
x[8,25,0] 0
x[8,25,1] 0
x[8,25,2] 0
x[8,26,0] 0
x[8,26,1] 0
x[8,26,2] 0
x[8,27,0] 0
x[8,27,1] 0
x[8,27,2] 0
x[8,28,0] 0
x[8,28,1] 0
x[8,28,2] 0
x[8,29,0] 0
x[8,29,1] 0
x[8,29,2] 0
x[8,30,0] 0
x[8,30,1] 0
x[8,30,2] 0
x[8,31,0] 0
x[8,31,1] 0
x[8,31,2] 0
x[9,0,0] 0
x[9,0,1] 0
x[9,0,2] 0
x[9,1,0] 0
x[9,1,1] 0
x[9,1,2] 0
x[9,2,0] 0
x[9,2,1] 0
x[9,2,2] 0
x[9,3,0] 0
x[9,3,1] 0
x[9,3,2] 0
x[9,4,0] 0
x[9,4,1] 0
x[9,4,2] 0
x[9,5,0] 0
x[9,5,1] 0
x[9,5,2] 0
x[9,6,0] 0
x[9,6,1] 0
x[9,6,2] 0
x[9,7,0] 0
x[9,7,1] 0
x[9,7,2] 0
x[9,8,0] 0
x[9,8,1] 0
x[9,8,2] 0
x[9,10,0] 0
x[9,10,1] 0
x[9,10,2] 0
x[9,11,0] 0
x[9,11,1] 0
x[9,11,2] 0
x[9,12,0] 0
x[9,12,1] 0
x[9,12,2] 0
x[9,13,0] 0
x[9,13,1] 0
x[9,13,2] 0
x[9,14,0] 0
x[9,14,1] 0
x[9,14,2] 0
x[9,15,0] 0
x[9,15,1] 0
x[9,15,2] 0
x[9,16,0] 1
x[9,16,1] 0
x[9,16,2] 0
x[9,17,0] 0
x[9,17,1] 0
x[9,17,2] 0
x[9,18,0] 0
x[9,18,1] 0
x[9,18,2] 0
x[9,19,0] 0
x[9,19,1] 0
x[9,19,2] 0
x[9,20,0] 0
x[9,20,1] 0
x[9,20,2] 0
x[9,21,0] 0
x[9,21,1] 0
x[9,21,2] 0
x[9,22,0] 0
x[9,22,1] 0
x[9,22,2] 0
x[9,23,0] 0
x[9,23,1] 0
x[9,23,2] 0
x[9,24,0] 0
x[9,24,1] 0
x[9,24,2] 0
x[9,25,0] 0
x[9,25,1] 0
x[9,25,2] 0
x[9,26,0] 0
x[9,26,1] 0
x[9,26,2] 0
x[9,27,0] 0
x[9,27,1] 0
x[9,27,2] 0
x[9,28,0] 0
x[9,28,1] 0
x[9,28,2] 0
x[9,29,0] 0
x[9,29,1] 0
x[9,29,2] 0
x[9,30,0] 0
x[9,30,1] 0
x[9,30,2] 0
x[9,31,0] 0
x[9,31,1] 0
x[9,31,2] 0
x[10,0,0] 0
x[10,0,1] 0
x[10,0,2] 0
x[10,1,0] 0
x[10,1,1] 0
x[10,1,2] 0
x[10,2,0] 0
x[10,2,1] 0
x[10,2,2] 0
x[10,3,0] 0
x[10,3,1] 0
x[10,3,2] 0
x[10,4,0] 0
x[10,4,1] 0
x[10,4,2] 0
x[10,5,0] 0
x[10,5,1] 0
x[10,5,2] 0
x[10,6,0] 0
x[10,6,1] 0
x[10,6,2] 0
x[10,7,0] 1
x[10,7,1] 0
x[10,7,2] 0
x[10,8,0] 0
x[10,8,1] 0
x[10,8,2] 0
x[10,9,0] 0
x[10,9,1] 0
x[10,9,2] 0
x[10,11,0] 0
x[10,11,1] 0
x[10,11,2] 0
x[10,12,0] 0
x[10,12,1] 0
x[10,12,2] 0
x[10,13,0] 0
x[10,13,1] 0
x[10,13,2] 0
x[10,14,0] 0
x[10,14,1] 0
x[10,14,2] 0
x[10,15,0] 0
x[10,15,1] 0
x[10,15,2] 0
x[10,16,0] 0
x[10,16,1] 0
x[10,16,2] 0
x[10,17,0] 0
x[10,17,1] 0
x[10,17,2] 0
x[10,18,0] 0
x[10,18,1] 0
x[10,18,2] 0
x[10,19,0] 0
x[10,19,1] 0
x[10,19,2] 0
x[10,20,0] 0
x[10,20,1] 0
x[10,20,2] 0
x[10,21,0] 0
x[10,21,1] 0
x[10,21,2] 0
x[10,22,0] 0
x[10,22,1] 0
x[10,22,2] 0
x[10,23,0] 0
x[10,23,1] 0
x[10,23,2] 0
x[10,24,0] 0
x[10,24,1] 0
x[10,24,2] 0
x[10,25,0] 0
x[10,25,1] 0
x[10,25,2] 0
x[10,26,0] 0
x[10,26,1] 0
x[10,26,2] 0
x[10,27,0] 0
x[10,27,1] 0
x[10,27,2] 0
x[10,28,0] 0
x[10,28,1] 0
x[10,28,2] 0
x[10,29,0] 0
x[10,29,1] 0
x[10,29,2] 0
x[10,30,0] 0
x[10,30,1] 0
x[10,30,2] 0
x[10,31,0] 0
x[10,31,1] 0
x[10,31,2] 0
x[11,0,0] 0
x[11,0,1] 0
x[11,0,2] 0
x[11,1,0] 0
x[11,1,1] 0
x[11,1,2] 0
x[11,2,0] 0
x[11,2,1] 0
x[11,2,2] 0
x[11,3,0] 0
x[11,3,1] 0
x[11,3,2] 0
x[11,4,0] 0
x[11,4,1] 0
x[11,4,2] 0
x[11,5,0] 0
x[11,5,1] 0
x[11,5,2] 0
x[11,6,0] 0
x[11,6,1] 0
x[11,6,2] 0
x[11,7,0] 0
x[11,7,1] 0
x[11,7,2] 0
x[11,8,0] 0
x[11,8,1] 0
x[11,8,2] 0
x[11,9,0] 0
x[11,9,1] 0
x[11,9,2] 0
x[11,10,0] 0
x[11,10,1] 0
x[11,10,2] 0
x[11,12,0] 0
x[11,12,1] 0
x[11,12,2] 0
x[11,13,0] 0
x[11,13,1] 0
x[11,13,2] 0
x[11,14,0] 0
x[11,14,1] 0
x[11,14,2] 0
x[11,15,0] 0
x[11,15,1] 0
x[11,15,2] 0
x[11,16,0] 0
x[11,16,1] 0
x[11,16,2] 0
x[11,17,0] 0
x[11,17,1] 0
x[11,17,2] 0
x[11,18,0] 0
x[11,18,1] 0
x[11,18,2] 0
x[11,19,0] 1
x[11,19,1] 0
x[11,19,2] 0
x[11,20,0] 0
x[11,20,1] 0
x[11,20,2] 0
x[11,21,0] 0
x[11,21,1] 0
x[11,21,2] 0
x[11,22,0] 0
x[11,22,1] 0
x[11,22,2] 0
x[11,23,0] 0
x[11,23,1] 0
x[11,23,2] 0
x[11,24,0] 0
x[11,24,1] 0
x[11,24,2] 0
x[11,25,0] 0
x[11,25,1] 0
x[11,25,2] 0
x[11,26,0] 0
x[11,26,1] 0
x[11,26,2] 0
x[11,27,0] 0
x[11,27,1] 0
x[11,27,2] 0
x[11,28,0] 0
x[11,28,1] 0
x[11,28,2] 0
x[11,29,0] 0
x[11,29,1] 0
x[11,29,2] 0
x[11,30,0] 0
x[11,30,1] 0
x[11,30,2] 0
x[11,31,0] 0
x[11,31,1] 0
x[11,31,2] 0
x[12,0,0] 0
x[12,0,1] 0
x[12,0,2] 0
x[12,1,0] 0
x[12,1,1] 0
x[12,1,2] 0
x[12,2,0] 0
x[12,2,1] 0
x[12,2,2] 0
x[12,3,0] 1
x[12,3,1] 0
x[12,3,2] 0
x[12,4,0] 0
x[12,4,1] 0
x[12,4,2] 0
x[12,5,0] 0
x[12,5,1] 0
x[12,5,2] 0
x[12,6,0] 0
x[12,6,1] 0
x[12,6,2] 0
x[12,7,0] 0
x[12,7,1] 0
x[12,7,2] 0
x[12,8,0] 0
x[12,8,1] 0
x[12,8,2] 0
x[12,9,0] 0
x[12,9,1] 0
x[12,9,2] 0
x[12,10,0] 0
x[12,10,1] 0
x[12,10,2] 0
x[12,11,0] 0
x[12,11,1] 0
x[12,11,2] 0
x[12,13,0] 0
x[12,13,1] 0
x[12,13,2] 0
x[12,14,0] 0
x[12,14,1] 0
x[12,14,2] 0
x[12,15,0] 0
x[12,15,1] 0
x[12,15,2] 0
x[12,16,0] 0
x[12,16,1] 0
x[12,16,2] 0
x[12,17,0] 0
x[12,17,1] 0
x[12,17,2] 0
x[12,18,0] 0
x[12,18,1] 0
x[12,18,2] 0
x[12,19,0] 0
x[12,19,1] 0
x[12,19,2] 0
x[12,20,0] 0
x[12,20,1] 0
x[12,20,2] 0
x[12,21,0] 0
x[12,21,1] 0
x[12,21,2] 0
x[12,22,0] 0
x[12,22,1] 0
x[12,22,2] 0
x[12,23,0] 0
x[12,23,1] 0
x[12,23,2] 0
x[12,24,0] 0
x[12,24,1] 0
x[12,24,2] 0
x[12,25,0] 0
x[12,25,1] 0
x[12,25,2] 0
x[12,26,0] 0
x[12,26,1] 0
x[12,26,2] 0
x[12,27,0] 0
x[12,27,1] 0
x[12,27,2] 0
x[12,28,0] 0
x[12,28,1] 0
x[12,28,2] 0
x[12,29,0] 0
x[12,29,1] 0
x[12,29,2] 0
x[12,30,0] 0
x[12,30,1] 0
x[12,30,2] 0
x[12,31,0] 0
x[12,31,1] 0
x[12,31,2] 0
x[13,0,0] 0
x[13,0,1] 0
x[13,0,2] 0
x[13,1,0] 0
x[13,1,1] 0
x[13,1,2] 0
x[13,2,0] 0
x[13,2,1] 0
x[13,2,2] 0
x[13,3,0] 0
x[13,3,1] 0
x[13,3,2] 0
x[13,4,0] 0
x[13,4,1] 1
x[13,4,2] 0
x[13,5,0] 0
x[13,5,1] 0
x[13,5,2] 0
x[13,6,0] 0
x[13,6,1] 0
x[13,6,2] 0
x[13,7,0] 0
x[13,7,1] 0
x[13,7,2] 0
x[13,8,0] 0
x[13,8,1] 0
x[13,8,2] 0
x[13,9,0] 0
x[13,9,1] 0
x[13,9,2] 0
x[13,10,0] 0
x[13,10,1] 0
x[13,10,2] 0
x[13,11,0] 0
x[13,11,1] 0
x[13,11,2] 0
x[13,12,0] 0
x[13,12,1] 0
x[13,12,2] 0
x[13,14,0] 0
x[13,14,1] 0
x[13,14,2] 0
x[13,15,0] 0
x[13,15,1] 0
x[13,15,2] 0
x[13,16,0] 0
x[13,16,1] 0
x[13,16,2] 0
x[13,17,0] 0
x[13,17,1] 0
x[13,17,2] 0
x[13,18,0] 0
x[13,18,1] 0
x[13,18,2] 0
x[13,19,0] 0
x[13,19,1] 0
x[13,19,2] 0
x[13,20,0] 0
x[13,20,1] 0
x[13,20,2] 0
x[13,21,0] 0
x[13,21,1] 0
x[13,21,2] 0
x[13,22,0] 0
x[13,22,1] 0
x[13,22,2] 0
x[13,23,0] 0
x[13,23,1] 0
x[13,23,2] 0
x[13,24,0] 0
x[13,24,1] 0
x[13,24,2] 0
x[13,25,0] 0
x[13,25,1] 0
x[13,25,2] 0
x[13,26,0] 0
x[13,26,1] 0
x[13,26,2] 0
x[13,27,0] 0
x[13,27,1] 0
x[13,27,2] 0
x[13,28,0] 0
x[13,28,1] 0
x[13,28,2] 0
x[13,29,0] 0
x[13,29,1] 0
x[13,29,2] 0
x[13,30,0] 0
x[13,30,1] 0
x[13,30,2] 0
x[13,31,0] 0
x[13,31,1] 0
x[13,31,2] 0
x[14,0,0] 0
x[14,0,1] 0
x[14,0,2] 0
x[14,1,0] 0
x[14,1,1] 0
x[14,1,2] 0
x[14,2,0] 0
x[14,2,1] 0
x[14,2,2] 0
x[14,3,0] 0
x[14,3,1] 0
x[14,3,2] 0
x[14,4,0] 0
x[14,4,1] 0
x[14,4,2] 0
x[14,5,0] 0
x[14,5,1] 0
x[14,5,2] 0
x[14,6,0] 0
x[14,6,1] 0
x[14,6,2] 0
x[14,7,0] 0
x[14,7,1] 0
x[14,7,2] 0
x[14,8,0] 0
x[14,8,1] 0
x[14,8,2] 0
x[14,9,0] 0
x[14,9,1] 0
x[14,9,2] 0
x[14,10,0] 0
x[14,10,1] 0
x[14,10,2] 0
x[14,11,0] 1
x[14,11,1] 0
x[14,11,2] 0
x[14,12,0] 0
x[14,12,1] 0
x[14,12,2] 0
x[14,13,0] 0
x[14,13,1] 0
x[14,13,2] 0
x[14,15,0] 0
x[14,15,1] 0
x[14,15,2] 0
x[14,16,0] 0
x[14,16,1] 0
x[14,16,2] 0
x[14,17,0] 0
x[14,17,1] 0
x[14,17,2] 0
x[14,18,0] 0
x[14,18,1] 0
x[14,18,2] 0
x[14,19,0] 0
x[14,19,1] 0
x[14,19,2] 0
x[14,20,0] 0
x[14,20,1] 0
x[14,20,2] 0
x[14,21,0] 0
x[14,21,1] 0
x[14,21,2] 0
x[14,22,0] 0
x[14,22,1] 0
x[14,22,2] 0
x[14,23,0] 0
x[14,23,1] 0
x[14,23,2] 0
x[14,24,0] 0
x[14,24,1] 0
x[14,24,2] 0
x[14,25,0] 0
x[14,25,1] 0
x[14,25,2] 0
x[14,26,0] 0
x[14,26,1] 0
x[14,26,2] 0
x[14,27,0] 0
x[14,27,1] 0
x[14,27,2] 0
x[14,28,0] 0
x[14,28,1] 0
x[14,28,2] 0
x[14,29,0] 0
x[14,29,1] 0
x[14,29,2] 0
x[14,30,0] 0
x[14,30,1] 0
x[14,30,2] 0
x[14,31,0] 0
x[14,31,1] 0
x[14,31,2] 0
x[15,0,0] 0
x[15,0,1] 0
x[15,0,2] 0
x[15,1,0] 0
x[15,1,1] 0
x[15,1,2] 0
x[15,2,0] 0
x[15,2,1] 0
x[15,2,2] 0
x[15,3,0] 0
x[15,3,1] 0
x[15,3,2] 0
x[15,4,0] 0
x[15,4,1] 0
x[15,4,2] 0
x[15,5,0] 0
x[15,5,1] 0
x[15,5,2] 0
x[15,6,0] 0
x[15,6,1] 0
x[15,6,2] 0
x[15,7,0] 0
x[15,7,1] 0
x[15,7,2] 0
x[15,8,0] 0
x[15,8,1] 0
x[15,8,2] 0
x[15,9,0] 0
x[15,9,1] 0
x[15,9,2] 0
x[15,10,0] 0
x[15,10,1] 0
x[15,10,2] 0
x[15,11,0] 0
x[15,11,1] 0
x[15,11,2] 0
x[15,12,0] 0
x[15,12,1] 0
x[15,12,2] 0
x[15,13,0] 0
x[15,13,1] 0
x[15,13,2] 0
x[15,14,0] 1
x[15,14,1] 0
x[15,14,2] 0
x[15,16,0] 0
x[15,16,1] 0
x[15,16,2] 0
x[15,17,0] 0
x[15,17,1] 0
x[15,17,2] 0
x[15,18,0] 0
x[15,18,1] 0
x[15,18,2] 0
x[15,19,0] 0
x[15,19,1] 0
x[15,19,2] 0
x[15,20,0] 0
x[15,20,1] 0
x[15,20,2] 0
x[15,21,0] 0
x[15,21,1] 0
x[15,21,2] 0
x[15,22,0] 0
x[15,22,1] 0
x[15,22,2] 0
x[15,23,0] 0
x[15,23,1] 0
x[15,23,2] 0
x[15,24,0] 0
x[15,24,1] 0
x[15,24,2] 0
x[15,25,0] 0
x[15,25,1] 0
x[15,25,2] 0
x[15,26,0] 0
x[15,26,1] 0
x[15,26,2] 0
x[15,27,0] 0
x[15,27,1] 0
x[15,27,2] 0
x[15,28,0] 0
x[15,28,1] 0
x[15,28,2] 0
x[15,29,0] 0
x[15,29,1] 0
x[15,29,2] 0
x[15,30,0] 0
x[15,30,1] 0
x[15,30,2] 0
x[15,31,0] 0
x[15,31,1] 0
x[15,31,2] 0
x[16,0,0] 0
x[16,0,1] 0
x[16,0,2] 0
x[16,1,0] 0
x[16,1,1] 0
x[16,1,2] 0
x[16,2,0] 0
x[16,2,1] 0
x[16,2,2] 0
x[16,3,0] 0
x[16,3,1] 0
x[16,3,2] 0
x[16,4,0] 0
x[16,4,1] 0
x[16,4,2] 0
x[16,5,0] 0
x[16,5,1] 0
x[16,5,2] 0
x[16,6,0] 0
x[16,6,1] 0
x[16,6,2] 0
x[16,7,0] 0
x[16,7,1] 0
x[16,7,2] 0
x[16,8,0] 0
x[16,8,1] 0
x[16,8,2] 0
x[16,9,0] 0
x[16,9,1] 0
x[16,9,2] 0
x[16,10,0] 0
x[16,10,1] 0
x[16,10,2] 0
x[16,11,0] 0
x[16,11,1] 0
x[16,11,2] 0
x[16,12,0] 0
x[16,12,1] 0
x[16,12,2] 0
x[16,13,0] 0
x[16,13,1] 0
x[16,13,2] 0
x[16,14,0] 0
x[16,14,1] 0
x[16,14,2] 0
x[16,15,0] 0
x[16,15,1] 0
x[16,15,2] 0
x[16,17,0] 0
x[16,17,1] 0
x[16,17,2] 0
x[16,18,0] 1
x[16,18,1] 0
x[16,18,2] 0
x[16,19,0] 0
x[16,19,1] 0
x[16,19,2] 0
x[16,20,0] 0
x[16,20,1] 0
x[16,20,2] 0
x[16,21,0] 0
x[16,21,1] 0
x[16,21,2] 0
x[16,22,0] 0
x[16,22,1] 0
x[16,22,2] 0
x[16,23,0] 0
x[16,23,1] 0
x[16,23,2] 0
x[16,24,0] 0
x[16,24,1] 0
x[16,24,2] 0
x[16,25,0] 0
x[16,25,1] 0
x[16,25,2] 0
x[16,26,0] 0
x[16,26,1] 0
x[16,26,2] 0
x[16,27,0] 0
x[16,27,1] 0
x[16,27,2] 0
x[16,28,0] 0
x[16,28,1] 0
x[16,28,2] 0
x[16,29,0] 0
x[16,29,1] 0
x[16,29,2] 0
x[16,30,0] 0
x[16,30,1] 0
x[16,30,2] 0
x[16,31,0] 0
x[16,31,1] 0
x[16,31,2] 0
x[17,0,0] 0
x[17,0,1] 0
x[17,0,2] 0
x[17,1,0] 1
x[17,1,1] 0
x[17,1,2] 0
x[17,2,0] 0
x[17,2,1] 0
x[17,2,2] 0
x[17,3,0] 0
x[17,3,1] 0
x[17,3,2] 0
x[17,4,0] 0
x[17,4,1] 0
x[17,4,2] 0
x[17,5,0] 0
x[17,5,1] 0
x[17,5,2] 0
x[17,6,0] 0
x[17,6,1] 0
x[17,6,2] 0
x[17,7,0] 0
x[17,7,1] 0
x[17,7,2] 0
x[17,8,0] 0
x[17,8,1] 0
x[17,8,2] 0
x[17,9,0] 0
x[17,9,1] 0
x[17,9,2] 0
x[17,10,0] 0
x[17,10,1] 0
x[17,10,2] 0
x[17,11,0] 0
x[17,11,1] 0
x[17,11,2] 0
x[17,12,0] 0
x[17,12,1] 0
x[17,12,2] 0
x[17,13,0] 0
x[17,13,1] 0
x[17,13,2] 0
x[17,14,0] 0
x[17,14,1] 0
x[17,14,2] 0
x[17,15,0] 0
x[17,15,1] 0
x[17,15,2] 0
x[17,16,0] 0
x[17,16,1] 0
x[17,16,2] 0
x[17,18,0] 0
x[17,18,1] 0
x[17,18,2] 0
x[17,19,0] 0
x[17,19,1] 0
x[17,19,2] 0
x[17,20,0] 0
x[17,20,1] 0
x[17,20,2] 0
x[17,21,0] 0
x[17,21,1] 0
x[17,21,2] 0
x[17,22,0] 0
x[17,22,1] 0
x[17,22,2] 0
x[17,23,0] 0
x[17,23,1] 0
x[17,23,2] 0
x[17,24,0] 0
x[17,24,1] 0
x[17,24,2] 0
x[17,25,0] 0
x[17,25,1] 0
x[17,25,2] 0
x[17,26,0] 0
x[17,26,1] 0
x[17,26,2] 0
x[17,27,0] 0
x[17,27,1] 0
x[17,27,2] 0
x[17,28,0] 0
x[17,28,1] 0
x[17,28,2] 0
x[17,29,0] 0
x[17,29,1] 0
x[17,29,2] 0
x[17,30,0] 0
x[17,30,1] 0
x[17,30,2] 0
x[17,31,0] 0
x[17,31,1] 0
x[17,31,2] 0
x[18,0,0] 0
x[18,0,1] 0
x[18,0,2] 0
x[18,1,0] 1
x[18,1,1] 0
x[18,1,2] 0
x[18,2,0] 0
x[18,2,1] 0
x[18,2,2] 0
x[18,3,0] 0
x[18,3,1] 0
x[18,3,2] 0
x[18,4,0] 0
x[18,4,1] 0
x[18,4,2] 0
x[18,5,0] 0
x[18,5,1] 0
x[18,5,2] 0
x[18,6,0] 0
x[18,6,1] 0
x[18,6,2] 0
x[18,7,0] 0
x[18,7,1] 0
x[18,7,2] 0
x[18,8,0] 0
x[18,8,1] 0
x[18,8,2] 0
x[18,9,0] 0
x[18,9,1] 0
x[18,9,2] 0
x[18,10,0] 0
x[18,10,1] 0
x[18,10,2] 0
x[18,11,0] 0
x[18,11,1] 0
x[18,11,2] 0
x[18,12,0] 0
x[18,12,1] 0
x[18,12,2] 0
x[18,13,0] 0
x[18,13,1] 0
x[18,13,2] 0
x[18,14,0] 0
x[18,14,1] 0
x[18,14,2] 0
x[18,15,0] 0
x[18,15,1] 0
x[18,15,2] 0
x[18,16,0] 0
x[18,16,1] 0
x[18,16,2] 0
x[18,17,0] 0
x[18,17,1] 0
x[18,17,2] 0
x[18,19,0] 0
x[18,19,1] 0
x[18,19,2] 0
x[18,20,0] 0
x[18,20,1] 0
x[18,20,2] 0
x[18,21,0] 0
x[18,21,1] 0
x[18,21,2] 0
x[18,22,0] 0
x[18,22,1] 0
x[18,22,2] 0
x[18,23,0] 0
x[18,23,1] 0
x[18,23,2] 0
x[18,24,0] 0
x[18,24,1] 0
x[18,24,2] 0
x[18,25,0] 0
x[18,25,1] 0
x[18,25,2] 0
x[18,26,0] 0
x[18,26,1] 0
x[18,26,2] 0
x[18,27,0] 0
x[18,27,1] 0
x[18,27,2] 0
x[18,28,0] 0
x[18,28,1] 0
x[18,28,2] 0
x[18,29,0] 0
x[18,29,1] 0
x[18,29,2] 0
x[18,30,0] 0
x[18,30,1] 0
x[18,30,2] 0
x[18,31,0] 0
x[18,31,1] 0
x[18,31,2] 0
x[19,0,0] 0
x[19,0,1] 0
x[19,0,2] 0
x[19,1,0] 0
x[19,1,1] 0
x[19,1,2] 0
x[19,2,0] 0
x[19,2,1] 0
x[19,2,2] 0
x[19,3,0] 0
x[19,3,1] 0
x[19,3,2] 0
x[19,4,0] 0
x[19,4,1] 0
x[19,4,2] 0
x[19,5,0] 0
x[19,5,1] 0
x[19,5,2] 0
x[19,6,0] 0
x[19,6,1] 0
x[19,6,2] 0
x[19,7,0] 0
x[19,7,1] 0
x[19,7,2] 0
x[19,8,0] 0
x[19,8,1] 0
x[19,8,2] 0
x[19,9,0] 0
x[19,9,1] 0
x[19,9,2] 0
x[19,10,0] 0
x[19,10,1] 0
x[19,10,2] 0
x[19,11,0] 0
x[19,11,1] 0
x[19,11,2] 0
x[19,12,0] 0
x[19,12,1] 0
x[19,12,2] 0
x[19,13,0] 0
x[19,13,1] 0
x[19,13,2] 0
x[19,14,0] 0
x[19,14,1] 0
x[19,14,2] 0
x[19,15,0] 0
x[19,15,1] 0
x[19,15,2] 0
x[19,16,0] 0
x[19,16,1] 0
x[19,16,2] 0
x[19,17,0] 1
x[19,17,1] 0
x[19,17,2] 0
x[19,18,0] 0
x[19,18,1] 0
x[19,18,2] 0
x[19,20,0] 0
x[19,20,1] 0
x[19,20,2] 0
x[19,21,0] 0
x[19,21,1] 0
x[19,21,2] 0
x[19,22,0] 0
x[19,22,1] 0
x[19,22,2] 0
x[19,23,0] 0
x[19,23,1] 0
x[19,23,2] 0
x[19,24,0] 0
x[19,24,1] 0
x[19,24,2] 0
x[19,25,0] 0
x[19,25,1] 0
x[19,25,2] 0
x[19,26,0] 0
x[19,26,1] 0
x[19,26,2] 0
x[19,27,0] 0
x[19,27,1] 0
x[19,27,2] 0
x[19,28,0] 0
x[19,28,1] 0
x[19,28,2] 0
x[19,29,0] 0
x[19,29,1] 0
x[19,29,2] 0
x[19,30,0] 0
x[19,30,1] 0
x[19,30,2] 0
x[19,31,0] 0
x[19,31,1] 0
x[19,31,2] 0
x[20,0,0] 0
x[20,0,1] 0
x[20,0,2] 0
x[20,1,0] 0
x[20,1,1] 0
x[20,1,2] 0
x[20,2,0] 0
x[20,2,1] 0
x[20,2,2] 0
x[20,3,0] 0
x[20,3,1] 0
x[20,3,2] 0
x[20,4,0] 0
x[20,4,1] 0
x[20,4,2] 0
x[20,5,0] 0
x[20,5,1] 0
x[20,5,2] 0
x[20,6,0] 0
x[20,6,1] 0
x[20,6,2] 0
x[20,7,0] 0
x[20,7,1] 0
x[20,7,2] 0
x[20,8,0] 0
x[20,8,1] 0
x[20,8,2] 0
x[20,9,0] 0
x[20,9,1] 0
x[20,9,2] 0
x[20,10,0] 0
x[20,10,1] 0
x[20,10,2] 0
x[20,11,0] 0
x[20,11,1] 0
x[20,11,2] 0
x[20,12,0] 0
x[20,12,1] 0
x[20,12,2] 0
x[20,13,0] 0
x[20,13,1] 0
x[20,13,2] 0
x[20,14,0] 0
x[20,14,1] 0
x[20,14,2] 0
x[20,15,0] 0
x[20,15,1] 0
x[20,15,2] 0
x[20,16,0] 0
x[20,16,1] 0
x[20,16,2] 0
x[20,17,0] 0
x[20,17,1] 0
x[20,17,2] 0
x[20,18,0] 0
x[20,18,1] 0
x[20,18,2] 0
x[20,19,0] 0
x[20,19,1] 0
x[20,19,2] 0
x[21,0,0] 0
x[21,0,1] 0
x[21,0,2] 0
x[21,1,0] 0
x[21,1,1] 0
x[21,1,2] 0
x[21,2,0] 0
x[21,2,1] 0
x[21,2,2] 0
x[21,3,0] 0
x[21,3,1] 0
x[21,3,2] 0
x[21,4,0] 0
x[21,4,1] 0
x[21,4,2] 0
x[21,5,0] 0
x[21,5,1] 0
x[21,5,2] 0
x[21,6,0] 0
x[21,6,1] 0
x[21,6,2] 0
x[21,7,0] 0
x[21,7,1] 0
x[21,7,2] 0
x[21,8,0] 0
x[21,8,1] 0
x[21,8,2] 0
x[21,9,0] 0
x[21,9,1] 0
x[21,9,2] 0
x[21,10,0] 0
x[21,10,1] 0
x[21,10,2] 0
x[21,11,0] 0
x[21,11,1] 0
x[21,11,2] 0
x[21,12,0] 0
x[21,12,1] 0
x[21,12,2] 0
x[21,13,0] 0
x[21,13,1] 0
x[21,13,2] 0
x[21,14,0] 0
x[21,14,1] 0
x[21,14,2] 0
x[21,15,0] 0
x[21,15,1] 0
x[21,15,2] 0
x[21,16,0] 0
x[21,16,1] 0
x[21,16,2] 0
x[21,17,0] 0
x[21,17,1] 0
x[21,17,2] 0
x[21,18,0] 0
x[21,18,1] 0
x[21,18,2] 0
x[21,19,0] 0
x[21,19,1] 0
x[21,19,2] 0
x[22,0,0] 0
x[22,0,1] 0
x[22,0,2] 0
x[22,1,0] 0
x[22,1,1] 0
x[22,1,2] 0
x[22,2,0] 0
x[22,2,1] 0
x[22,2,2] 0
x[22,3,0] 0
x[22,3,1] 0
x[22,3,2] 0
x[22,4,0] 0
x[22,4,1] 0
x[22,4,2] 0
x[22,5,0] 0
x[22,5,1] 0
x[22,5,2] 0
x[22,6,0] 0
x[22,6,1] 0
x[22,6,2] 0
x[22,7,0] 0
x[22,7,1] 0
x[22,7,2] 0
x[22,8,0] 0
x[22,8,1] 0
x[22,8,2] 0
x[22,9,0] 0
x[22,9,1] 0
x[22,9,2] 0
x[22,10,0] 0
x[22,10,1] 0
x[22,10,2] 0
x[22,11,0] 0
x[22,11,1] 0
x[22,11,2] 0
x[22,12,0] 0
x[22,12,1] 0
x[22,12,2] 0
x[22,13,0] 0
x[22,13,1] 0
x[22,13,2] 0
x[22,14,0] 0
x[22,14,1] 0
x[22,14,2] 0
x[22,15,0] 0
x[22,15,1] 0
x[22,15,2] 0
x[22,16,0] 0
x[22,16,1] 0
x[22,16,2] 0
x[22,17,0] 0
x[22,17,1] 0
x[22,17,2] 0
x[22,18,0] 0
x[22,18,1] 0
x[22,18,2] 0
x[22,19,0] 0
x[22,19,1] 0
x[22,19,2] 0
x[23,0,0] 0
x[23,0,1] 0
x[23,0,2] 0
x[23,1,0] 0
x[23,1,1] 0
x[23,1,2] 0
x[23,2,0] 0
x[23,2,1] 0
x[23,2,2] 0
x[23,3,0] 0
x[23,3,1] 0
x[23,3,2] 0
x[23,4,0] 0
x[23,4,1] 0
x[23,4,2] 0
x[23,5,0] 0
x[23,5,1] 0
x[23,5,2] 0
x[23,6,0] 0
x[23,6,1] 0
x[23,6,2] 0
x[23,7,0] 0
x[23,7,1] 0
x[23,7,2] 0
x[23,8,0] 0
x[23,8,1] 0
x[23,8,2] 0
x[23,9,0] 0
x[23,9,1] 0
x[23,9,2] 0
x[23,10,0] 0
x[23,10,1] 0
x[23,10,2] 0
x[23,11,0] 0
x[23,11,1] 0
x[23,11,2] 0
x[23,12,0] 0
x[23,12,1] 0
x[23,12,2] 0
x[23,13,0] 0
x[23,13,1] 0
x[23,13,2] 0
x[23,14,0] 0
x[23,14,1] 0
x[23,14,2] 0
x[23,15,0] 0
x[23,15,1] 0
x[23,15,2] 0
x[23,16,0] 0
x[23,16,1] 0
x[23,16,2] 0
x[23,17,0] 0
x[23,17,1] 0
x[23,17,2] 0
x[23,18,0] 0
x[23,18,1] 0
x[23,18,2] 0
x[23,19,0] 0
x[23,19,1] 0
x[23,19,2] 0
x[24,0,0] 0
x[24,0,1] 0
x[24,0,2] 0
x[24,1,0] 0
x[24,1,1] 0
x[24,1,2] 0
x[24,2,0] 0
x[24,2,1] 0
x[24,2,2] 0
x[24,3,0] 0
x[24,3,1] 0
x[24,3,2] 0
x[24,4,0] 0
x[24,4,1] 0
x[24,4,2] 0
x[24,5,0] 0
x[24,5,1] 0
x[24,5,2] 0
x[24,6,0] 0
x[24,6,1] 0
x[24,6,2] 0
x[24,7,0] 0
x[24,7,1] 0
x[24,7,2] 0
x[24,8,0] 0
x[24,8,1] 0
x[24,8,2] 0
x[24,9,0] 0
x[24,9,1] 0
x[24,9,2] 0
x[24,10,0] 0
x[24,10,1] 0
x[24,10,2] 0
x[24,11,0] 0
x[24,11,1] 0
x[24,11,2] 0
x[24,12,0] 0
x[24,12,1] 0
x[24,12,2] 0
x[24,13,0] 0
x[24,13,1] 0
x[24,13,2] 0
x[24,14,0] 0
x[24,14,1] 0
x[24,14,2] 0
x[24,15,0] 0
x[24,15,1] 0
x[24,15,2] 0
x[24,16,0] 0
x[24,16,1] 0
x[24,16,2] 0
x[24,17,0] 0
x[24,17,1] 0
x[24,17,2] 0
x[24,18,0] 0
x[24,18,1] 0
x[24,18,2] 0
x[24,19,0] 0
x[24,19,1] 0
x[24,19,2] 0
x[25,0,0] 0
x[25,0,1] 0
x[25,0,2] 0
x[25,1,0] 0
x[25,1,1] 0
x[25,1,2] 0
x[25,2,0] 0
x[25,2,1] 0
x[25,2,2] 0
x[25,3,0] 0
x[25,3,1] 0
x[25,3,2] 0
x[25,4,0] 0
x[25,4,1] 0
x[25,4,2] 0
x[25,5,0] 0
x[25,5,1] 0
x[25,5,2] 0
x[25,6,0] 0
x[25,6,1] 0
x[25,6,2] 0
x[25,7,0] 0
x[25,7,1] 0
x[25,7,2] 0
x[25,8,0] 0
x[25,8,1] 0
x[25,8,2] 0
x[25,9,0] 0
x[25,9,1] 0
x[25,9,2] 0
x[25,10,0] 0
x[25,10,1] 0
x[25,10,2] 0
x[25,11,0] 0
x[25,11,1] 0
x[25,11,2] 0
x[25,12,0] 0
x[25,12,1] 0
x[25,12,2] 0
x[25,13,0] 0
x[25,13,1] 0
x[25,13,2] 0
x[25,14,0] 0
x[25,14,1] 0
x[25,14,2] 0
x[25,15,0] 0
x[25,15,1] 0
x[25,15,2] 0
x[25,16,0] 0
x[25,16,1] 0
x[25,16,2] 0
x[25,17,0] 0
x[25,17,1] 0
x[25,17,2] 0
x[25,18,0] 0
x[25,18,1] 0
x[25,18,2] 0
x[25,19,0] 0
x[25,19,1] 0
x[25,19,2] 0
x[26,0,0] 0
x[26,0,1] 0
x[26,0,2] 0
x[26,1,0] 0
x[26,1,1] 0
x[26,1,2] 0
x[26,2,0] 0
x[26,2,1] 0
x[26,2,2] 0
x[26,3,0] 0
x[26,3,1] 0
x[26,3,2] 0
x[26,4,0] 0
x[26,4,1] 0
x[26,4,2] 0
x[26,5,0] 0
x[26,5,1] 0
x[26,5,2] 0
x[26,6,0] 0
x[26,6,1] 0
x[26,6,2] 0
x[26,7,0] 0
x[26,7,1] 0
x[26,7,2] 0
x[26,8,0] 0
x[26,8,1] 0
x[26,8,2] 0
x[26,9,0] 0
x[26,9,1] 0
x[26,9,2] 0
x[26,10,0] 0
x[26,10,1] 0
x[26,10,2] 0
x[26,11,0] 0
x[26,11,1] 0
x[26,11,2] 0
x[26,12,0] 0
x[26,12,1] 0
x[26,12,2] 0
x[26,13,0] 0
x[26,13,1] 0
x[26,13,2] 0
x[26,14,0] 0
x[26,14,1] 0
x[26,14,2] 0
x[26,15,0] 0
x[26,15,1] 0
x[26,15,2] 0
x[26,16,0] 0
x[26,16,1] 0
x[26,16,2] 0
x[26,17,0] 0
x[26,17,1] 0
x[26,17,2] 0
x[26,18,0] 0
x[26,18,1] 0
x[26,18,2] 0
x[26,19,0] 0
x[26,19,1] 0
x[26,19,2] 0
x[27,0,0] 0
x[27,0,1] 0
x[27,0,2] 0
x[27,1,0] 0
x[27,1,1] 0
x[27,1,2] 0
x[27,2,0] 0
x[27,2,1] 0
x[27,2,2] 0
x[27,3,0] 0
x[27,3,1] 0
x[27,3,2] 0
x[27,4,0] 0
x[27,4,1] 0
x[27,4,2] 0
x[27,5,0] 0
x[27,5,1] 0
x[27,5,2] 0
x[27,6,0] 0
x[27,6,1] 0
x[27,6,2] 0
x[27,7,0] 0
x[27,7,1] 0
x[27,7,2] 0
x[27,8,0] 0
x[27,8,1] 0
x[27,8,2] 0
x[27,9,0] 0
x[27,9,1] 0
x[27,9,2] 0
x[27,10,0] 0
x[27,10,1] 0
x[27,10,2] 0
x[27,11,0] 0
x[27,11,1] 0
x[27,11,2] 0
x[27,12,0] 0
x[27,12,1] 0
x[27,12,2] 0
x[27,13,0] 0
x[27,13,1] 0
x[27,13,2] 0
x[27,14,0] 0
x[27,14,1] 0
x[27,14,2] 0
x[27,15,0] 0
x[27,15,1] 0
x[27,15,2] 0
x[27,16,0] 0
x[27,16,1] 0
x[27,16,2] 0
x[27,17,0] 0
x[27,17,1] 0
x[27,17,2] 0
x[27,18,0] 0
x[27,18,1] 0
x[27,18,2] 0
x[27,19,0] 0
x[27,19,1] 0
x[27,19,2] 0
x[28,0,0] 0
x[28,0,1] 0
x[28,0,2] 0
x[28,1,0] 0
x[28,1,1] 0
x[28,1,2] 0
x[28,2,0] 0
x[28,2,1] 0
x[28,2,2] 0
x[28,3,0] 0
x[28,3,1] 0
x[28,3,2] 0
x[28,4,0] 0
x[28,4,1] 0
x[28,4,2] 0
x[28,5,0] 0
x[28,5,1] 0
x[28,5,2] 0
x[28,6,0] 0
x[28,6,1] 0
x[28,6,2] 0
x[28,7,0] 0
x[28,7,1] 0
x[28,7,2] 0
x[28,8,0] 0
x[28,8,1] 0
x[28,8,2] 0
x[28,9,0] 0
x[28,9,1] 0
x[28,9,2] 0
x[28,10,0] 0
x[28,10,1] 0
x[28,10,2] 0
x[28,11,0] 0
x[28,11,1] 0
x[28,11,2] 0
x[28,12,0] 0
x[28,12,1] 0
x[28,12,2] 0
x[28,13,0] 0
x[28,13,1] 0
x[28,13,2] 0
x[28,14,0] 0
x[28,14,1] 0
x[28,14,2] 0
x[28,15,0] 0
x[28,15,1] 0
x[28,15,2] 0
x[28,16,0] 0
x[28,16,1] 0
x[28,16,2] 0
x[28,17,0] 0
x[28,17,1] 0
x[28,17,2] 0
x[28,18,0] 0
x[28,18,1] 0
x[28,18,2] 0
x[28,19,0] 0
x[28,19,1] 0
x[28,19,2] 0
x[29,0,0] 0
x[29,0,1] 0
x[29,0,2] 0
x[29,1,0] 0
x[29,1,1] 0
x[29,1,2] 0
x[29,2,0] 0
x[29,2,1] 0
x[29,2,2] 0
x[29,3,0] 0
x[29,3,1] 0
x[29,3,2] 0
x[29,4,0] 0
x[29,4,1] 0
x[29,4,2] 0
x[29,5,0] 0
x[29,5,1] 0
x[29,5,2] 0
x[29,6,0] 0
x[29,6,1] 0
x[29,6,2] 0
x[29,7,0] 0
x[29,7,1] 0
x[29,7,2] 0
x[29,8,0] 0
x[29,8,1] 0
x[29,8,2] 0
x[29,9,0] 0
x[29,9,1] 0
x[29,9,2] 0
x[29,10,0] 0
x[29,10,1] 0
x[29,10,2] 0
x[29,11,0] 0
x[29,11,1] 0
x[29,11,2] 0
x[29,12,0] 0
x[29,12,1] 0
x[29,12,2] 0
x[29,13,0] 0
x[29,13,1] 0
x[29,13,2] 0
x[29,14,0] 0
x[29,14,1] 0
x[29,14,2] 0
x[29,15,0] 0
x[29,15,1] 0
x[29,15,2] 0
x[29,16,0] 0
x[29,16,1] 0
x[29,16,2] 0
x[29,17,0] 0
x[29,17,1] 0
x[29,17,2] 0
x[29,18,0] 0
x[29,18,1] 0
x[29,18,2] 0
x[29,19,0] 0
x[29,19,1] 0
x[29,19,2] 0
x[30,0,0] 0
x[30,0,1] 0
x[30,0,2] 0
x[30,1,0] 0
x[30,1,1] 0
x[30,1,2] 0
x[30,2,0] 0
x[30,2,1] 0
x[30,2,2] 0
x[30,3,0] 0
x[30,3,1] 0
x[30,3,2] 0
x[30,4,0] 0
x[30,4,1] 0
x[30,4,2] 0
x[30,5,0] 0
x[30,5,1] 0
x[30,5,2] 0
x[30,6,0] 0
x[30,6,1] 0
x[30,6,2] 0
x[30,7,0] 0
x[30,7,1] 0
x[30,7,2] 0
x[30,8,0] 0
x[30,8,1] 0
x[30,8,2] 0
x[30,9,0] 0
x[30,9,1] 0
x[30,9,2] 0
x[30,10,0] 0
x[30,10,1] 0
x[30,10,2] 0
x[30,11,0] 0
x[30,11,1] 0
x[30,11,2] 0
x[30,12,0] 0
x[30,12,1] 0
x[30,12,2] 0
x[30,13,0] 0
x[30,13,1] 0
x[30,13,2] 0
x[30,14,0] 0
x[30,14,1] 0
x[30,14,2] 0
x[30,15,0] 0
x[30,15,1] 0
x[30,15,2] 0
x[30,16,0] 0
x[30,16,1] 0
x[30,16,2] 0
x[30,17,0] 0
x[30,17,1] 0
x[30,17,2] 0
x[30,18,0] 0
x[30,18,1] 0
x[30,18,2] 0
x[30,19,0] 0
x[30,19,1] 0
x[30,19,2] 0
x[31,0,0] 0
x[31,0,1] 0
x[31,0,2] 0
x[31,1,0] 0
x[31,1,1] 0
x[31,1,2] 0
x[31,2,0] 0
x[31,2,1] 0
x[31,2,2] 0
x[31,3,0] 0
x[31,3,1] 0
x[31,3,2] 0
x[31,4,0] 0
x[31,4,1] 0
x[31,4,2] 0
x[31,5,0] 0
x[31,5,1] 0
x[31,5,2] 0
x[31,6,0] 0
x[31,6,1] 0
x[31,6,2] 0
x[31,7,0] 0
x[31,7,1] 0
x[31,7,2] 0
x[31,8,0] 0
x[31,8,1] 0
x[31,8,2] 0
x[31,9,0] 0
x[31,9,1] 0
x[31,9,2] 0
x[31,10,0] 0
x[31,10,1] 0
x[31,10,2] 0
x[31,11,0] 0
x[31,11,1] 0
x[31,11,2] 0
x[31,12,0] 0
x[31,12,1] 0
x[31,12,2] 0
x[31,13,0] 0
x[31,13,1] 0
x[31,13,2] 0
x[31,14,0] 0
x[31,14,1] 0
x[31,14,2] 0
x[31,15,0] 0
x[31,15,1] 0
x[31,15,2] 0
x[31,16,0] 0
x[31,16,1] 0
x[31,16,2] 0
x[31,17,0] 0
x[31,17,1] 0
x[31,17,2] 0
x[31,18,0] 0
x[31,18,1] 0
x[31,18,2] 0
x[31,19,0] 0
x[31,19,1] 0
x[31,19,2] 0
y[0,0] 1
y[0,1] 0
y[0,2] 0
y[1,0] 0
y[1,1] 1
y[1,2] 0
y[2,0] 0
y[2,1] 0
y[2,2] 1
y[3,0] 1
y[3,1] 0
y[3,2] 0
y[4,0] 0
y[4,1] 1
y[4,2] 0
y[5,0] 0
y[5,1] 1
y[5,2] 0
y[6,0] 1
y[6,1] 0
y[6,2] 0
y[7,0] 1
y[7,1] 0
y[7,2] 0
y[8,0] 1
y[8,1] 0
y[8,2] 0
y[9,0] 1
y[9,1] 0
y[9,2] 0
y[10,0] 1
y[10,1] 0
y[10,2] 0
y[11,0] 1
y[11,1] 0
y[11,2] 0
y[12,0] 1
y[12,1] 0
y[12,2] 0
y[13,0] 0
y[13,1] 1
y[13,2] 0
y[14,0] 1
y[14,1] 0
y[14,2] 0
y[15,0] 1
y[15,1] 0
y[15,2] 0
y[16,0] 1
y[16,1] 0
y[16,2] 0
y[17,0] 1
y[17,1] 0
y[17,2] 0
y[18,0] 1
y[18,1] 0
y[18,2] 0
y[19,0] 1
y[19,1] 0
y[19,2] 0
y[20,0] 1
y[20,1] 1
y[20,2] 0
y[21,0] 0
y[21,1] 0
y[21,2] 0
y[22,0] 0
y[22,1] 0
y[22,2] 0
y[23,0] 0
y[23,1] 0
y[23,2] 0
y[24,0] 0
y[24,1] 0
y[24,2] 0
y[25,0] 0
y[25,1] 0
y[25,2] 0
y[26,0] 0
y[26,1] 0
y[26,2] 0
y[27,0] 0
y[27,1] 0
y[27,2] 0
y[28,0] 0
y[28,1] 0
y[28,2] 0
y[29,0] 0
y[29,1] 0
y[29,2] 0
y[30,0] 0
y[30,1] 0
y[30,2] 0
y[31,0] 0
y[31,1] 0
y[31,2] 0
T[0,0] 0
T[0,1] 0
T[0,2] 0
T[1,0] 2998
T[1,1] 0
T[1,2] 2
T[2,0] 2741
T[2,1] 169
T[2,2] 0
T[3,0] 2830
T[3,1] 2906
T[3,2] 2906
T[4,0] 55
T[4,1] 115
T[4,2] 2941
T[5,0] 246
T[5,1] 64
T[5,2] 2928
T[6,0] 2903
T[6,1] 2911
T[6,2] 2911
T[7,0] 2866
T[7,1] 2920
T[7,2] 2920
T[8,0] 2897
T[8,1] 2907
T[8,2] 2907
T[9,0] 2912
T[9,1] 2918
T[9,2] 2918
T[10,0] 2808
T[10,1] 2828
T[10,2] 2977
T[11,0] 2806
T[11,1] 2930
T[11,2] 2965
T[12,0] 2806
T[12,1] 2928
T[12,2] 2928
T[13,0] 78
T[13,1] 85
T[13,2] 2914
T[14,0] 2783
T[14,1] 2933
T[14,2] 2968
T[15,0] 2756
T[15,1] 2935
T[15,2] 2978
T[16,0] 2919
T[16,1] 2922
T[16,2] 2922
T[17,0] 2931
T[17,1] 2937
T[17,2] 2976
T[18,0] 2929
T[18,1] 2928
T[18,2] 2928
T[19,0] 2922
T[19,1] 2932
T[19,2] 2969
T[20,0] 9.9999985354299437e-01
T[20,1] 9.9999985354315868e-01
T[20,2] 0
T[21,0] 635
T[21,1] 513
T[21,2] 71
T[22,0] 291
T[22,1] 0
T[22,2] 0
T[23,0] 635
T[23,1] 513
T[23,2] 71
T[24,0] 291
T[24,1] 0
T[24,2] 0
T[25,0] 635
T[25,1] 513
T[25,2] 71
T[26,0] 291
T[26,1] 0
T[26,2] 0
T[27,0] 635
T[27,1] 513
T[27,2] 71
T[28,0] 291
T[28,1] 0
T[28,2] 0
T[29,0] 635
T[29,1] 513
T[29,2] 71
T[30,0] 291
T[30,1] 0
T[30,2] 0
T[31,0] 635
T[31,1] 513
T[31,2] 71
L[0,0] 0
L[0,1] 0
L[0,2] 0
L[1,0] 0
L[1,1] 0
L[1,2] 0
L[2,0] 0
L[2,1] 0
L[2,2] 0
L[3,0] 8
L[3,1] 7
L[3,2] 4
L[4,0] 5
L[4,1] 8
L[4,2] 2
L[5,0] 5
L[5,1] 2
L[5,2] 2
L[6,0] 5
L[6,1] 1
L[6,2] 1
L[7,0] 2
L[7,1] 1
L[7,2] 1
L[8,0] 3
L[8,1] 1
L[8,2] 1
L[9,0] 6
L[9,1] 1
L[9,2] 1
L[10,0] 1
L[10,1] 1
L[10,2] 1
L[11,0] 5
L[11,1] 1
L[11,2] 1
L[12,0] 1
L[12,1] 1
L[12,2] 1
L[13,0] 4
L[13,1] 6
L[13,2] 4
L[14,0] 4
L[14,1] 3
L[14,2] 3
L[15,0] 1
L[15,1] 1
L[15,2] 1
L[16,0] 7
L[16,1] 1
L[16,2] 1
L[17,0] 7
L[17,1] 1
L[17,2] 1
L[18,0] 8
L[18,1] 1
L[18,2] 1
L[19,0] 6
L[19,1] 1
L[19,2] 1
L[20,0] 0
L[20,1] 0
L[20,2] 0
L[21,0] 0
L[21,1] 0
L[21,2] 0
L[22,0] 8
L[22,1] 0
L[22,2] 8
L[23,0] 0
L[23,1] 0
L[23,2] 0
L[24,0] 8
L[24,1] 0
L[24,2] 0
L[25,0] 0
L[25,1] 0
L[25,2] 0
L[26,0] 8
L[26,1] 0
L[26,2] 0
L[27,0] 0
L[27,1] 0
L[27,2] 0
L[28,0] 0
L[28,1] 0
L[28,2] 0
L[29,0] 0
L[29,1] 0
L[29,2] 0
L[30,0] 0
L[30,1] 8
L[30,2] 0
L[31,0] 0
L[31,1] 0
L[31,2] 0
trip[3,0] 1
trip[3,1] 1
trip[3,2] 1
trip[4,0] 1
trip[4,1] 1
trip[4,2] 1
trip[5,0] 1
trip[5,1] 1
trip[5,2] 1
trip[6,0] 1
trip[6,1] 1
trip[6,2] 1
trip[7,0] 1
trip[7,1] 1
trip[7,2] 1
trip[8,0] 1
trip[8,1] 1
trip[8,2] 1
trip[9,0] 1
trip[9,1] 1
trip[9,2] 1
trip[10,0] 1
trip[10,1] 1
trip[10,2] 1
trip[11,0] 1
trip[11,1] 1
trip[11,2] 1
trip[12,0] 1
trip[12,1] 1
trip[12,2] 6
trip[13,0] 1
trip[13,1] 1
trip[13,2] 1
trip[14,0] 1
trip[14,1] 1
trip[14,2] 1
trip[15,0] 1
trip[15,1] 1
trip[15,2] 1
trip[16,0] 1
trip[16,1] 1
trip[16,2] 1
trip[17,0] 1
trip[17,1] 1
trip[17,2] 1
trip[18,0] 1
trip[18,1] 1
trip[18,2] 1
trip[19,0] 1
trip[19,1] 1
trip[19,2] 1
RobotActive_0 1
C2920 1
C2921 0
C2922 0
C2923 0
C2924 0
C2925 0
C2926 0
C2927 0
C2928 0
C2929 0
C2930 0
C2931 0
RobotActive_1 1
C2933 1
C2934 0
C2935 0
C2936 0
C2937 0
C2938 0
C2939 0
C2940 0
C2941 0
C2942 0
C2943 0
C2944 0
RobotActive_2 0
C2946 0
C2947 0
C2948 0
C2949 0
C2950 0
C2951 0
C2952 0
C2953 0
C2954 0
C2955 0
C2956 0
C2957 0
C2958 0
C2959 0
C2960 0
C2961 0
C2962 0
C2963 0
C2964 1
C2965 1
C2966 1
C2967 1
C2968 1
C2969 1
C2970 1
C2971 1
C2972 1
C2973 1
C2974 0
C2975 0
C2976 0
C2977 0
C2978 0
C2979 0
C2980 0
C2981 0
C2982 1
C2983 1
C2984 1
C2985 1
C2986 1
C2987 1
C2988 1
C2989 1
C2990 1
C2991 0
C2992 0
C2993 0
C2994 0
C2995 0
C2996 0
C2997 0
C2998 0
C2999 0
C3000 0
C3001 0
C3002 0
C3003 0
C3004 0
C3005 0
C3006 0
C3007 0
C3008 0
C3009 0
C3010 0
C3011 0
C3012 0
C3013 0
C3014 0
C3015 0
C3016 0
C3017 0
C3018 0
C3019 0
C3020 0
C3021 0
C3022 0
C3023 0
C3024 0
C3025 0
C3026 0
C3027 0
C3028 0
C3029 0
C3030 0
C3031 0
C3032 0
C3033 0
C3034 0
C3035 0
C3036 0
C3037 0
C3038 0
C3039 0
C3040 0
C3041 0
C3042 0
C3043 0
C3044 0
C3045 0
C3046 0
C3047 0
C3048 0
C3049 0
C3050 0
C3051 0
C3052 0
C3053 0
C3054 0
C3055 0
C3056 0
Makespan 9.9999985354299437e-01
